Route #1: 0 6 16 12 38 11 35 46 26 0
Route #2: 0 8 53 19 13 20 36 47 21 45 0
Route #3: 0 17 32 40 7 34 34 52 27 0
Route #4: 0 39 31 25 18 51 2 28 4 0
Route #5: 0 48 33 43 41 24 50 9 3 0
Route #6: 0 49 23 1 22 30 29 5 37 15 54 14 0
Route #7: 0 10 44 42 0
Cost 920:
